1635232
0,60,23,3,19,47,1,58,35,49,27,15,62,20,2,41,11,31,55,39,4,18,48,22,59,28,24,29,40,5,10,65,25,54,45,33,63,66,37,6,42,30,21,51,32,56,17,9,13,43,52,36,61,38,50,34,67,7,14,57,8,16,26,44,64,12,46,53,0